Route #1: 22 25 27 12 6
Route #2: 8 47 20 46 33 7
Route #3: 14 21 3
Route #4: 18 15 26 19 48 49
Route #5: 35 45 31 29 39
Route #6: 40 23 38 34 11
Route #7: 41 9 2 43 50
Route #8: 16 5 10 30 1 13 17 32 44 28
Route #9: 42 36 37 24 4
Cost 7675233.000000